NAME lp_typeD_4747
OBJSENSE MAX
ROWS
 N  OBJ
 L  c0      
 L  c1      
 G  c2      
 G  c3      
 G  c4      
 L  c_key_upper
 G  c_key_lower
 G  _chain_constr_1
 G  _chain_constr_2
 G  _chain_constr_3
 G  _chain_constr_4
 G  _chain_constr_5
 G  _chain_cycle
COLUMNS
    x0        OBJ       8.4386779999679085e-01
    x0        c0        1.4994409898709573e+00
    x0        c1        8.5237751675366091e-01
    x0        c2        7.7733382714951982e-01
    x0        c3        1.1120352506560445e+00
    x0        c4        6.1266674350701344e-01
    x0        c_key_upper  1.6729360141639797e+00
    x0        c_key_lower  1.6729360141639797e+00
    x1        OBJ       6.4950380030043275e-01
    x1        c0        1.4407958471226321e+00
    x1        c1        1.8696257598014945e+00
    x1        c2        1.8634654150811016e+00
    x1        c3        1.5715208600689548e+00
    x1        c4        1.2605299778679977e+00
    x1        c_key_upper  1.4070346496793555e+00
    x1        c_key_lower  1.4070346496793555e+00
    x2        OBJ       1.3249925193071039e+00
    x2        c0        1.0905869333064762e+00
    x2        c1        6.1531619237087232e-01
    x2        c2        1.89318173808164
    x2        c3        8.1395451155609888e-01
    x2        c4        0.847424642986214
    x2        c_key_upper  1.3975724424598264e+00
    x2        c_key_lower  1.3975724424598264e+00
    x3        OBJ       1.1072573949949249e+00
    x3        c0        6.9819188698985313e-01
    x3        c1        5.5944358087803647e-01
    x3        c2        7.4199029385317139e-01
    x3        c3        1.0433420812230767e+00
    x3        c4        1.7667618712887334e+00
    x3        c_key_upper  1.5055261725352351e+00
    x3        c_key_lower  1.5055261725352351e+00
    x4        OBJ       9.9572762408925430e-01
    x4        c0        1.1259475250709845e+00
    x4        c1        6.6475523736700459e-01
    x4        c2        1.9584404572013665e+00
    x4        c3        1.2203447990757965e+00
    x4        c4        1.2087379999226422e+00
    x4        c_key_upper  1.2943595818641809e+00
    x4        c_key_lower  1.2943595818641809e+00
    x5        OBJ       5.7827436819006439e-01
    x5        c0        6.8540167104107041e-01
    x5        c1        1.0488931130863122e+00
    x5        c2        1.6304779259375164e+00
    x5        c3        1.6721329206255338e+00
    x5        c4        9.4063899917785088e-01
    x5        c_key_upper  1.3261615838971712e+00
    x5        c_key_lower  1.3261615838971712e+00
    x6        OBJ       8.4336255962304141e-01
    x6        c0        1.7840678544348028e+00
    x6        c1        1.64055515478782
    x6        c2        1.3264398824652774e+00
    x6        c3        1.1038924043348395e+00
    x6        c4        1.1598156842358605e+00
    x6        c_key_upper  1.4331850403000552e+00
    x6        c_key_lower  1.4331850403000552e+00
    _chain_var_0  _chain_constr_1  -1
    _chain_var_0  _chain_cycle  1
    _chain_var_1  _chain_constr_1  1
    _chain_var_1  _chain_constr_2  -1
    _chain_var_2  _chain_constr_2  1
    _chain_var_2  _chain_constr_3  -1
    _chain_var_3  _chain_constr_3  1
    _chain_var_3  _chain_constr_4  -1
    _chain_var_4  _chain_constr_4  1
    _chain_var_4  _chain_constr_5  -1
    _chain_var_5  _chain_constr_5  1
    _chain_var_5  _chain_cycle  -1
RHS
    RHS1      c0        40.6028764887231
    RHS1      c1        3.1374926435901465e+01
    RHS1      c2        1.0838090425818093e+01
    RHS1      c3        1.4969840667150837e+01
    RHS1      c4        1.1295801071351796e+01
    RHS1      c_key_upper  5.0183877424499016e+01
    RHS1      c_key_lower  2.5091938712249508e+01
    RHS1      _chain_constr_1  10
    RHS1      _chain_constr_2  10
    RHS1      _chain_constr_3  10
    RHS1      _chain_constr_4  10
    RHS1      _chain_constr_5  10
    RHS1      _chain_cycle  10
BOUNDS
 UP BND1      x0        10
 UP BND1      x1        10
 UP BND1      x2        10
 UP BND1      x3        10
 UP BND1      x4        10
 UP BND1      x5        10
 UP BND1      x6        10
 UP BND1      _chain_var_0  100
 UP BND1      _chain_var_1  100
 UP BND1      _chain_var_2  100
 UP BND1      _chain_var_3  100
 UP BND1      _chain_var_4  100
 UP BND1      _chain_var_5  100
ENDATA
